c Result of efficient AIG-to-CNF conversion using package CNF
p cnf 588 2082
2 527 3 -4 0
2 527 3 -274 0
-2 -527 0
-2 -3 0
-2 4 274 0
-3 524 525 526 0
3 -524 0
3 -526 0
3 -525 0
-4 16 -254 0
-4 16 234 0
-4 -5 16 0
4 -16 0
4 5 -234 254 0
-5 528 529 6 10 0
5 -528 0
5 -10 0
5 -6 0
5 -529 0
-6 544 545 7 0
6 -7 0
6 -545 0
6 -544 0
-7 532 8 0
7 -532 0
7 -8 0
-8 546 547 9 0
8 -9 0
8 -547 0
8 -546 0
-9 548 549 550 0
9 -548 0
9 -550 0
9 -549 0
-10 11 12 13 14 0
10 -14 0
10 -11 0
10 -13 0
10 -12 0
-11 542 543 0
11 -542 0
11 -543 0
-12 530 531 0
12 -530 0
12 -531 0
-13 539 540 541 0
13 -539 0
13 -541 0
13 -540 0
-14 536 537 538 15 0
14 -15 0
14 -538 0
14 -536 0
14 -537 0
-15 533 534 535 0
15 -533 0
15 -535 0
15 -534 0
16 5 -17 -228 0
16 5 -17 213 0
-16 -5 0
-16 17 0
-16 -213 228 0
17 -18 -109 0
17 551 -109 0
-17 109 0
-17 -551 18 0
18 552 -19 0
-18 -552 0
-18 19 0
19 553 -20 0
-19 -553 0
-19 20 0
20 554 -21 0
20 -554 -90 0
-20 -554 90 0
-20 554 21 0
21 -555 -59 0
21 555 -22 0
-21 555 22 0
-21 -555 59 0
-22 526 23 0
22 -526 0
22 -23 0
23 551 37 -44 0
23 -551 -24 37 0
-23 -37 0
-23 -551 24 0
-23 551 44 0
24 552 -25 0
24 -552 -32 0
-24 -552 32 0
-24 552 25 0
25 553 -26 0
25 -553 -29 0
-25 -553 29 0
-25 553 26 0
26 554 -27 0
26 -554 -28 0
-26 -554 28 0
-26 554 27 0
27 555 -574 0
27 -555 -575 0
-27 -555 575 0
-27 555 574 0
28 555 -576 0
28 -555 -577 0
-28 -555 577 0
-28 555 576 0
29 554 -30 0
29 -554 -31 0
-29 -554 31 0
-29 554 30 0
30 555 -578 0
30 -555 -579 0
-30 -555 579 0
-30 555 578 0
31 555 -580 0
31 -555 -581 0
-31 -555 581 0
-31 555 580 0
32 553 -33 0
32 -553 -36 0
-32 -553 36 0
-32 553 33 0
33 554 -34 0
33 -554 -35 0
-33 -554 35 0
-33 554 34 0
34 555 -582 0
34 -555 -583 0
-34 -555 583 0
-34 555 582 0
35 555 -584 0
35 -555 -585 0
-35 -555 585 0
-35 555 584 0
36 554 -555 -587 0
36 554 555 -586 0
-36 -554 0
-36 -555 587 0
-36 555 586 0
-37 545 9 38 40 0
37 -545 0
37 -40 0
37 -38 0
37 -9 0
-38 536 537 13 39 0
38 -536 0
38 -39 0
38 -13 0
38 -537 0
-39 542 543 544 0
39 -542 0
39 -544 0
39 -543 0
-40 538 546 547 41 0
40 -41 0
40 -547 0
40 -538 0
40 -546 0
-41 3 15 42 43 0
41 -43 0
41 -3 0
41 -42 0
41 -15 0
-42 527 528 529 0
42 -527 0
42 -529 0
42 -528 0
-43 530 531 532 0
43 -530 0
43 -532 0
43 -531 0
44 552 -45 0
44 -552 -52 0
-44 -552 52 0
-44 552 45 0
45 553 -46 0
45 -553 -49 0
-45 -553 49 0
-45 553 46 0
46 554 -47 0
46 -554 -48 0
-46 -554 48 0
-46 554 47 0
47 555 -558 0
47 -555 -559 0
-47 -555 559 0
-47 555 558 0
48 555 -560 0
48 -555 -561 0
-48 -555 561 0
-48 555 560 0
49 554 -50 0
49 -554 -51 0
-49 -554 51 0
-49 554 50 0
50 555 -562 0
50 -555 -563 0
-50 -555 563 0
-50 555 562 0
51 555 -564 0
51 -555 -565 0
-51 -555 565 0
-51 555 564 0
52 553 -53 0
52 -553 -56 0
-52 -553 56 0
-52 553 53 0
53 554 -54 0
53 -554 -55 0
-53 -554 55 0
-53 554 54 0
54 555 -566 0
54 -555 -567 0
-54 -555 567 0
-54 555 566 0
55 555 -568 0
55 -555 -569 0
-55 -555 569 0
-55 555 568 0
56 554 -57 0
56 -554 -58 0
-56 -554 58 0
-56 554 57 0
57 555 -570 0
57 -555 -571 0
-57 -555 571 0
-57 555 570 0
58 555 -572 0
58 -555 -573 0
-58 -555 573 0
-58 555 572 0
-59 525 60 0
59 -525 0
59 -60 0
60 -551 37 -76 0
60 551 37 -61 0
-60 -37 0
-60 -551 76 0
-60 551 61 0
61 552 -62 0
61 -552 -69 0
-61 -552 69 0
-61 552 62 0
62 553 -63 0
62 -553 -66 0
-62 -553 66 0
-62 553 63 0
63 554 -64 0
63 -554 -65 0
-63 -554 65 0
-63 554 64 0
64 555 -557 0
64 -555 -558 0
-64 -555 558 0
-64 555 557 0
65 555 -559 0
65 -555 -560 0
-65 -555 560 0
-65 555 559 0
66 554 -67 0
66 -554 -68 0
-66 -554 68 0
-66 554 67 0
67 555 -561 0
67 -555 -562 0
-67 -555 562 0
-67 555 561 0
68 555 -563 0
68 -555 -564 0
-68 -555 564 0
-68 555 563 0
69 553 -70 0
69 -553 -73 0
-69 -553 73 0
-69 553 70 0
70 554 -71 0
70 -554 -72 0
-70 -554 72 0
-70 554 71 0
71 555 -565 0
71 -555 -566 0
-71 -555 566 0
-71 555 565 0
72 555 -567 0
72 -555 -568 0
-72 -555 568 0
-72 555 567 0
73 554 -74 0
73 -554 -75 0
-73 -554 75 0
-73 554 74 0
74 555 -569 0
74 -555 -570 0
-74 -555 570 0
-74 555 569 0
75 555 -571 0
75 -555 -572 0
-75 -555 572 0
-75 555 571 0
76 552 -77 0
76 -552 -84 0
-76 -552 84 0
-76 552 77 0
77 553 -78 0
77 -553 -81 0
-77 -553 81 0
-77 553 78 0
78 554 -79 0
78 -554 -80 0
-78 -554 80 0
-78 554 79 0
79 555 -573 0
79 -555 -574 0
-79 -555 574 0
-79 555 573 0
80 555 -575 0
80 -555 -576 0
-80 -555 576 0
-80 555 575 0
81 554 -82 0
81 -554 -83 0
-81 -554 83 0
-81 554 82 0
82 555 -577 0
82 -555 -578 0
-82 -555 578 0
-82 555 577 0
83 555 -579 0
83 -555 -580 0
-83 -555 580 0
-83 555 579 0
84 553 -85 0
84 -553 -88 0
-84 -553 88 0
-84 553 85 0
85 554 -86 0
85 -554 -87 0
-85 -554 87 0
-85 554 86 0
86 555 -581 0
86 -555 -582 0
-86 -555 582 0
-86 555 581 0
87 555 -583 0
87 -555 -584 0
-87 -555 584 0
-87 555 583 0
88 554 -89 0
88 -554 555 -587 0
-88 -554 -555 0
-88 554 89 0
-88 -554 587 0
89 555 -585 0
89 -555 -586 0
-89 -555 586 0
-89 555 585 0
90 555 -91 0
-90 -555 0
-90 91 0
-91 524 92 0
91 -524 0
91 -92 0
92 551 37 -101 0
92 -551 37 -93 0
-92 -37 0
-92 -551 93 0
-92 551 101 0
93 552 -94 0
93 -552 -97 0
-93 -552 97 0
-93 552 94 0
94 553 -95 0
94 -553 -96 0
-94 -553 96 0
-94 553 95 0
95 -554 -27 0
95 554 -58 0
-95 554 58 0
-95 -554 27 0
96 554 -28 0
96 -554 -30 0
-96 -554 30 0
-96 554 28 0
97 553 -98 0
97 -553 -99 0
-97 -553 99 0
-97 553 98 0
98 554 -31 0
98 -554 -34 0
-98 -554 34 0
-98 554 31 0
99 554 -35 0
99 -554 -100 0
-99 -554 100 0
-99 554 35 0
100 555 -586 0
100 -555 -587 0
-100 -555 587 0
-100 555 586 0
101 552 -102 0
101 -552 -106 0
-101 -552 106 0
-101 552 102 0
102 553 -103 0
102 -553 -105 0
-102 -553 105 0
-102 553 103 0
103 -554 -47 0
103 554 -104 0
-103 554 104 0
-103 -554 47 0
104 555 -556 0
104 -555 -557 0
-104 -555 557 0
-104 555 556 0
105 554 -48 0
105 -554 -50 0
-105 -554 50 0
-105 554 48 0
106 553 -107 0
106 -553 -108 0
-106 -553 108 0
-106 553 107 0
107 554 -51 0
107 -554 -54 0
-107 -554 54 0
-107 554 51 0
108 554 -55 0
108 -554 -57 0
-108 -554 57 0
-108 554 55 0
-109 551 -552 110 0
-109 551 552 177 0
109 -551 0
109 -552 -110 0
109 552 -177 0
110 553 -111 0
110 -553 -140 0
-110 -553 140 0
-110 553 111 0
111 554 -112 0
111 -554 -121 0
-111 -554 121 0
-111 554 112 0
112 -555 -117 0
112 555 -113 0
-112 555 113 0
-112 -555 117 0
-113 534 114 0
113 -534 0
113 -114 0
114 -551 37 -116 0
114 551 37 -115 0
-114 -37 0
-114 -551 116 0
-114 551 115 0
-115 552 52 0
-115 -552 25 0
115 -552 -25 0
115 552 -52 0
116 552 -32 0
-116 -552 0
-116 32 0
-117 533 118 0
117 -533 0
117 -118 0
118 -551 37 -120 0
118 551 37 -119 0
-118 -37 0
-118 -551 120 0
-118 551 119 0
-119 -552 77 0
-119 552 69 0
119 552 -69 0
119 -552 -77 0
120 552 -84 0
-120 -552 0
-120 84 0
121 -555 -126 0
121 555 -122 0
-121 555 122 0
-121 -555 126 0
-122 532 123 0
122 -532 0
122 -123 0
123 -551 37 -125 0
123 551 37 -124 0
-123 -37 0
-123 -551 125 0
-123 551 124 0
-124 552 106 0
-124 -552 94 0
124 -552 -94 0
124 552 -106 0
125 552 -97 0
-125 -552 0
-125 97 0
-126 531 127 0
126 -531 0
126 -127 0
127 -551 37 -135 0
127 551 37 -128 0
-127 -37 0
-127 -551 135 0
-127 551 128 0
-128 552 129 0
-128 -552 132 0
128 -552 -132 0
128 552 -129 0
-129 553 131 0
-129 -553 130 0
129 -553 -130 0
129 553 -131 0
130 554 -72 0
130 -554 -74 0
-130 -554 74 0
-130 554 72 0
131 554 -68 0
131 -554 -71 0
-131 -554 71 0
-131 554 68 0
132 553 -133 0
132 -553 -134 0
-132 -553 134 0
-132 553 133 0
133 554 -75 0
133 -554 -79 0
-133 -554 79 0
-133 554 75 0
134 554 -80 0
134 -554 -82 0
-134 -554 82 0
-134 554 80 0
135 552 -136 0
135 -552 -139 0
-135 -552 139 0
-135 552 136 0
136 553 -137 0
136 -553 -138 0
-136 -553 138 0
-136 553 137 0
137 554 -83 0
137 -554 -86 0
-137 -554 86 0
-137 554 83 0
138 554 -87 0
138 -554 -89 0
-138 -554 89 0
-138 554 87 0
139 553 554 555 -587 0
-139 587 0
-139 -555 0
-139 -553 0
-139 -554 0
140 554 -141 0
140 -554 -158 0
-140 -554 158 0
-140 554 141 0
141 -555 -150 0
141 555 -142 0
-141 555 142 0
-141 -555 150 0
-142 530 143 0
142 -530 0
142 -143 0
143 -551 37 -147 0
143 551 37 -144 0
-143 -37 0
-143 -551 147 0
-143 551 144 0
-144 552 145 0
-144 -552 146 0
144 -552 -146 0
144 552 -145 0
-145 -553 53 0
-145 553 49 0
145 553 -49 0
145 -553 -53 0
146 -553 -26 0
146 553 -56 0
-146 553 56 0
-146 -553 26 0
147 552 -148 0
147 -552 -149 0
-147 -552 149 0
-147 552 148 0
148 553 -29 0
148 -553 -33 0
-148 -553 33 0
-148 553 29 0
149 553 -36 0
-149 -553 0
-149 36 0
-150 529 151 0
150 -529 0
150 -151 0
151 -551 37 -155 0
151 551 37 -152 0
-151 -37 0
-151 -551 155 0
-151 551 152 0
-152 552 153 0
-152 -552 154 0
152 -552 -154 0
152 552 -153 0
-153 -553 70 0
-153 553 66 0
153 553 -66 0
153 -553 -70 0
154 553 -73 0
154 -553 -78 0
-154 -553 78 0
-154 553 73 0
155 552 -156 0
155 -552 -157 0
-155 -552 157 0
-155 552 156 0
156 553 -81 0
156 -553 -85 0
-156 -553 85 0
-156 553 81 0
157 553 -88 0
-157 -553 0
-157 88 0
158 -555 -167 0
158 555 -159 0
-158 555 159 0
-158 -555 167 0
-159 528 160 0
159 -528 0
159 -160 0
160 -551 37 -164 0
160 551 37 -161 0
-160 -37 0
-160 -551 164 0
-160 551 161 0
-161 552 162 0
-161 -552 163 0
161 -552 -163 0
161 552 -162 0
-162 -553 107 0
-162 553 105 0
162 553 -105 0
162 -553 -107 0
163 -553 -95 0
163 553 -108 0
-163 553 108 0
-163 -553 95 0
164 552 -165 0
164 -552 -166 0
-164 -552 166 0
-164 552 165 0
165 553 -96 0
165 -553 -98 0
-165 -553 98 0
-165 553 96 0
166 553 -99 0
-166 -553 0
-166 99 0
-167 527 168 0
167 -527 0
167 -168 0
168 551 37 -173 0
168 -551 37 -169 0
-168 -37 0
-168 -551 169 0
-168 551 173 0
169 552 -170 0
169 -552 -171 0
-169 -552 171 0
-169 552 170 0
170 553 -134 0
170 -553 -137 0
-170 -553 137 0
-170 553 134 0
171 553 -138 0
171 -553 -172 0
-171 -553 172 0
-171 553 138 0
172 554 555 -587 0
-172 587 0
-172 -555 0
-172 -554 0
173 552 -174 0
173 -552 -176 0
-173 -552 176 0
-173 552 174 0
174 -553 -131 0
174 553 -175 0
-174 553 175 0
-174 -553 131 0
175 554 -65 0
175 -554 -67 0
-175 -554 67 0
-175 554 65 0
176 553 -130 0
176 -553 -133 0
-176 -553 133 0
-176 553 130 0
177 553 -178 0
177 -553 -194 0
-177 -553 194 0
-177 553 178 0
178 554 -179 0
178 -554 -187 0
-178 -554 187 0
-178 554 179 0
179 -555 -185 0
179 555 -180 0
-179 555 180 0
-179 -555 185 0
-180 542 181 0
180 -542 0
180 -181 0
181 -24 182 0
-181 24 0
-181 -182 0
-182 7 12 42 183 0
182 -183 0
182 -7 0
182 -42 0
182 -12 0
-183 538 545 551 184 0
183 -184 0
183 -551 0
183 -538 0
183 -545 0
-184 3 15 38 0
184 -3 0
184 -15 0
184 -38 0
-185 541 186 0
185 -541 0
185 -186 0
186 -76 182 0
-186 76 0
-186 -182 0
187 -555 -190 0
187 555 -188 0
-187 555 188 0
-187 -555 190 0
-188 540 189 0
188 -540 0
188 -189 0
189 -93 182 0
-189 93 0
-189 -182 0
-190 539 191 0
190 -539 0
190 -191 0
191 -551 37 -193 0
191 551 37 -192 0
-191 -37 0
-191 -551 193 0
-191 551 192 0
-192 -552 136 0
-192 552 132 0
192 552 -132 0
192 -552 -136 0
193 552 -139 0
-193 -552 0
-193 139 0
194 554 -195 0
194 -554 -204 0
-194 -554 204 0
-194 554 195 0
195 -555 -200 0
195 555 -196 0
-195 555 196 0
-195 -555 200 0
-196 538 197 0
196 -538 0
196 -197 0
197 -551 37 -199 0
197 551 37 -198 0
-197 -37 0
-197 -551 199 0
-197 551 198 0
-198 -552 148 0
-198 552 146 0
198 552 -146 0
198 -552 -148 0
199 552 -149 0
-199 -552 0
-199 149 0
-200 537 201 0
200 -537 0
200 -201 0
201 -551 37 -203 0
201 551 37 -202 0
-201 -37 0
-201 -551 203 0
-201 551 202 0
-202 -552 156 0
-202 552 154 0
202 552 -154 0
202 -552 -156 0
203 552 -157 0
-203 -552 0
-203 157 0
204 -555 -209 0
204 555 -205 0
-204 555 205 0
-204 -555 209 0
-205 536 206 0
205 -536 0
205 -206 0
206 -551 37 -208 0
206 551 37 -207 0
-206 -37 0
-206 -551 208 0
-206 551 207 0
-207 -552 165 0
-207 552 163 0
207 552 -163 0
207 -552 -165 0
208 552 -166 0
-208 -552 0
-208 166 0
-209 535 210 0
209 -535 0
209 -210 0
210 -551 37 -212 0
210 551 37 -211 0
-210 -37 0
-210 -551 212 0
-210 551 211 0
-211 552 176 0
-211 -552 170 0
211 -552 -170 0
211 552 -176 0
212 552 -171 0
-212 -552 0
-212 171 0
-213 551 -552 221 0
-213 551 552 214 0
213 -551 0
213 -552 -221 0
213 552 -214 0
214 553 -215 0
214 -553 -218 0
-214 -553 218 0
-214 553 215 0
215 554 -216 0
215 -554 -217 0
-215 -554 217 0
-215 554 216 0
216 555 -181 0
216 -555 -186 0
-216 -555 186 0
-216 555 181 0
217 555 -189 0
217 -555 -191 0
-217 -555 191 0
-217 555 189 0
218 554 -219 0
218 -554 -220 0
-218 -554 220 0
-218 554 219 0
219 555 -197 0
219 -555 -201 0
-219 -555 201 0
-219 555 197 0
220 555 -206 0
220 -555 -210 0
-220 -555 210 0
-220 555 206 0
221 553 -222 0
221 -553 -225 0
-221 -553 225 0
-221 553 222 0
222 554 -223 0
222 -554 -224 0
-222 -554 224 0
-222 554 223 0
223 555 -114 0
223 -555 -118 0
-223 -555 118 0
-223 555 114 0
224 555 -123 0
224 -555 -127 0
-224 -555 127 0
-224 555 123 0
225 554 -226 0
225 -554 -227 0
-225 -554 227 0
-225 554 226 0
226 555 -143 0
226 -555 -151 0
-226 -555 151 0
-226 555 143 0
227 555 -160 0
227 -555 -168 0
-227 -555 168 0
-227 555 160 0
228 -551 229 0
-228 551 0
-228 -229 0
229 552 -230 0
-229 -552 0
-229 230 0
230 553 -231 0
-230 -553 0
-230 231 0
231 554 -232 0
231 -554 -233 0
-231 -554 233 0
-231 554 232 0
232 555 -23 0
232 -555 -60 0
-232 -555 60 0
-232 555 23 0
233 555 -92 0
-233 -555 0
-233 92 0
234 -235 -239 0
234 551 -239 0
-234 239 0
-234 -551 235 0
235 552 -236 0
-235 -552 0
-235 236 0
236 553 -237 0
-236 -553 0
-236 237 0
237 554 -238 0
-237 -554 0
-237 238 0
238 -555 -91 0
238 555 -59 0
-238 555 59 0
-238 -555 91 0
-239 551 -552 240 0
-239 551 552 247 0
239 -551 0
239 -552 -240 0
239 552 -247 0
240 553 -241 0
240 -553 -244 0
-240 -553 244 0
-240 553 241 0
241 554 -242 0
241 -554 -243 0
-241 -554 243 0
-241 554 242 0
242 -555 -122 0
242 555 -117 0
-242 555 117 0
-242 -555 122 0
243 -555 -142 0
243 555 -126 0
-243 555 126 0
-243 -555 142 0
244 554 -245 0
244 -554 -246 0
-244 -554 246 0
-244 554 245 0
245 -555 -159 0
245 555 -150 0
-245 555 150 0
-245 -555 159 0
246 555 -167 0
246 -555 -22 0
-246 -555 22 0
-246 555 167 0
247 553 -248 0
247 -553 -251 0
-247 -553 251 0
-247 553 248 0
248 554 -249 0
248 -554 -250 0
-248 -554 250 0
-248 554 249 0
249 -555 -188 0
249 555 -185 0
-249 555 185 0
-249 -555 188 0
250 -555 -196 0
250 555 -190 0
-250 555 190 0
-250 -555 196 0
251 554 -252 0
251 -554 -253 0
-251 -554 253 0
-251 554 252 0
252 -555 -205 0
252 555 -200 0
-252 555 200 0
-252 -555 205 0
253 555 -209 0
253 -555 -113 0
-253 -555 113 0
-253 555 209 0
254 551 -255 0
254 -551 -270 0
-254 -551 270 0
-254 551 255 0
255 552 -256 0
255 -552 -263 0
-255 -552 263 0
-255 552 256 0
256 553 -257 0
256 -553 -260 0
-256 -553 260 0
-256 553 257 0
257 554 -258 0
257 -554 -259 0
-257 -554 259 0
-257 554 258 0
258 555 -186 0
258 -555 -189 0
-258 -555 189 0
-258 555 186 0
259 555 -191 0
259 -555 -197 0
-259 -555 197 0
-259 555 191 0
260 554 -261 0
260 -554 -262 0
-260 -554 262 0
-260 554 261 0
261 555 -201 0
261 -555 -206 0
-261 -555 206 0
-261 555 201 0
262 -555 -114 0
262 555 -210 0
-262 555 210 0
-262 -555 114 0
263 553 -264 0
263 -553 -267 0
-263 -553 267 0
-263 553 264 0
264 554 -265 0
264 -554 -266 0
-264 -554 266 0
-264 554 265 0
265 555 -118 0
265 -555 -123 0
-265 -555 123 0
-265 555 118 0
266 555 -127 0
266 -555 -143 0
-266 -555 143 0
-266 555 127 0
267 554 -268 0
267 -554 -269 0
-267 -554 269 0
-267 554 268 0
268 555 -151 0
268 -555 -160 0
-268 -555 160 0
-268 555 151 0
269 -555 -23 0
269 555 -168 0
-269 555 168 0
-269 -555 23 0
270 552 -271 0
-270 -552 0
-270 271 0
271 553 -272 0
-271 -553 0
-271 272 0
272 554 -273 0
-272 -554 0
-272 273 0
273 555 -60 0
273 -555 -92 0
-273 -555 92 0
-273 555 60 0
-274 275 296 367 0
-274 -5 275 296 0
274 -296 0
274 -275 0
274 5 -367 0
275 5 -276 -293 0
275 5 -276 286 0
-275 -5 0
-275 276 0
-275 -286 293 0
276 551 -277 0
276 552 -277 -284 0
-276 277 0
-276 -551 284 0
-276 -551 -552 0
-277 551 -552 278 0
-277 551 552 281 0
277 -551 0
277 -552 -278 0
277 552 -281 0
278 553 -279 0
278 -553 -280 0
-278 -553 280 0
-278 553 279 0
279 554 -121 0
279 -554 -141 0
-279 -554 141 0
-279 554 121 0
280 -554 -21 0
280 554 -158 0
-280 554 158 0
-280 -554 21 0
281 553 -282 0
281 -553 -283 0
-281 -553 283 0
-281 553 282 0
282 554 -187 0
282 -554 -195 0
-282 -554 195 0
-282 554 187 0
283 -554 -112 0
283 554 -204 0
-283 554 204 0
-283 -554 112 0
284 553 -285 0
-284 -553 0
-284 285 0
285 554 -90 0
-285 -554 0
-285 90 0
-286 551 -552 290 0
-286 551 552 287 0
286 -551 0
286 -552 -290 0
286 552 -287 0
287 553 -288 0
287 -553 -289 0
-287 -553 289 0
-287 553 288 0
288 554 -217 0
288 -554 -219 0
-288 -554 219 0
-288 554 217 0
289 554 -220 0
289 -554 -223 0
-289 -554 223 0
-289 554 220 0
290 553 -291 0
290 -553 -292 0
-290 -553 292 0
-290 553 291 0
291 554 -224 0
291 -554 -226 0
-291 -554 226 0
-291 554 224 0
292 554 -227 0
292 -554 -232 0
-292 -554 232 0
-292 554 227 0
293 -551 -552 0
293 -551 294 0
-293 551 0
-293 552 -294 0
294 553 -295 0
-294 -553 0
-294 295 0
295 554 -233 0
-295 -554 0
-295 233 0
296 297 -316 0
296 297 -302 309 0
-296 -297 0
-296 302 316 0
-296 -309 316 0
-297 528 298 14 299 0
297 -528 0
297 -299 0
297 -14 0
297 -298 0
-298 539 540 0
298 -539 0
298 -540 0
-299 529 43 300 301 0
299 -529 0
299 -301 0
299 -300 0
299 -43 0
-300 545 551 0
300 -545 0
300 -551 0
-301 541 8 39 0
301 -39 0
301 -8 0
301 -541 0
-302 552 306 0
-302 -552 303 0
302 -552 -303 0
302 552 -306 0
303 553 -304 0
303 -553 -305 0
-303 -553 305 0
-303 553 304 0
304 554 -243 0
304 -554 -245 0
-304 -554 245 0
-304 554 243 0
305 -554 -238 0
305 554 -246 0
-305 554 246 0
-305 -554 238 0
306 553 -307 0
306 -553 -308 0
-306 -553 308 0
-306 553 307 0
307 554 -250 0
307 -554 -252 0
-307 -554 252 0
-307 554 250 0
308 -554 -242 0
308 554 -253 0
-308 554 253 0
-308 -554 242 0
309 552 -310 0
309 -552 -313 0
-309 -552 313 0
-309 552 310 0
310 553 -311 0
310 -553 -312 0
-310 -553 312 0
-310 553 311 0
311 554 -259 0
311 -554 -261 0
-311 -554 261 0
-311 554 259 0
312 554 -262 0
312 -554 -265 0
-312 -554 265 0
-312 554 262 0
313 553 -314 0
313 -553 -315 0
-313 -553 315 0
-313 553 314 0
314 554 -266 0
314 -554 -268 0
-314 -554 268 0
-314 554 266 0
315 554 -269 0
315 -554 -273 0
-315 -554 273 0
-315 554 269 0
-316 317 319 338 0
-316 -318 319 338 0
316 -338 0
316 -319 0
316 -317 318 0
317 -552 -236 0
317 552 -240 0
-317 552 240 0
-317 -552 236 0
318 552 -263 0
318 -552 -271 0
-318 -552 271 0
-318 552 263 0
-319 320 333 336 0
-319 320 333 -337 0
319 -320 0
319 -333 0
319 -336 337 0
-320 -324 327 0
-320 321 -330 0
-320 321 327 0
-320 -324 -330 0
320 -321 324 0
320 -327 330 0
321 552 -322 0
321 -552 -323 0
-321 -552 323 0
-321 552 322 0
322 -553 -304 0
322 553 -308 0
-322 553 308 0
-322 -553 304 0
323 553 -305 0
-323 -553 0
-323 305 0
324 552 -325 0
324 -552 -326 0
-324 -552 326 0
-324 552 325 0
325 553 -312 0
325 -553 -314 0
-325 -553 314 0
-325 553 312 0
326 553 -315 0
-326 -553 0
-326 315 0
327 552 -328 0
327 -552 -329 0
-327 -552 329 0
-327 552 328 0
328 -553 -279 0
328 553 -283 0
-328 553 283 0
-328 -553 279 0
329 553 -280 0
329 -553 -285 0
-329 -553 285 0
-329 553 280 0
330 552 -331 0
330 -552 -332 0
-330 -552 332 0
-330 552 331 0
331 553 -289 0
331 -553 -291 0
-331 -553 291 0
-331 553 289 0
332 553 -292 0
332 -553 -295 0
-332 -553 295 0
-332 553 292 0
333 -297 -334 0
333 -334 335 0
-333 334 0
-333 297 -335 0
334 552 -303 0
-334 -552 0
-334 303 0
335 552 -313 0
-335 -552 0
-335 313 0
336 552 -278 0
336 -552 -284 0
-336 -552 284 0
-336 552 278 0
337 552 -290 0
337 -552 -294 0
-337 -552 294 0
-337 552 290 0
-338 339 352 358 364 0
338 -364 0
338 -339 0
338 -358 0
338 -352 0
-339 -343 346 0
-339 340 -349 0
-339 340 346 0
-339 -343 -349 0
339 -346 349 0
339 -340 343 0
-340 552 342 0
-340 -552 341 0
340 -552 -341 0
340 552 -342 0
341 -553 -20 0
341 553 -140 0
-341 553 140 0
-341 -553 20 0
342 -553 -111 0
342 553 -194 0
-342 553 194 0
-342 -553 111 0
343 552 -344 0
343 -552 -345 0
-343 -552 345 0
-343 552 344 0
344 553 -218 0
344 -553 -222 0
-344 -553 222 0
-344 553 218 0
345 553 -225 0
345 -553 -231 0
-345 -553 231 0
-345 553 225 0
-346 552 348 0
-346 -552 347 0
346 -552 -347 0
346 552 -348 0
347 -553 -237 0
347 553 -244 0
-347 553 244 0
-347 -553 237 0
348 -553 -241 0
348 553 -251 0
-348 553 251 0
-348 -553 241 0
349 552 -350 0
349 -552 -351 0
-349 -552 351 0
-349 552 350 0
350 553 -260 0
350 -553 -264 0
-350 -553 264 0
-350 553 260 0
351 553 -267 0
351 -553 -272 0
-351 -553 272 0
-351 553 267 0
-352 353 356 0
-352 297 353 -357 0
352 -353 0
352 -356 357 0
352 -297 -356 0
353 -297 -354 0
353 -354 355 0
-353 354 0
-353 297 -355 0
354 552 -341 0
-354 -552 0
-354 341 0
355 552 -345 0
-355 -552 0
-355 345 0
356 552 -347 0
-356 -552 0
-356 347 0
357 552 -351 0
-357 -552 0
-357 351 0
-358 359 361 0
-358 297 -360 361 0
358 -361 0
358 -359 360 0
358 -297 -359 0
359 552 -329 0
-359 -552 0
-359 329 0
360 552 -332 0
-360 -552 0
-360 332 0
-361 -270 362 0
-361 235 -363 0
-361 235 362 0
-361 -270 -363 0
361 -235 270 0
361 -362 363 0
362 552 -323 0
-362 -552 0
-362 323 0
363 552 -326 0
-363 -552 0
-363 326 0
-364 -229 365 0
-364 18 -366 0
-364 18 365 0
-364 -229 -366 0
364 -18 229 0
364 -365 366 0
365 -552 -19 0
365 552 -110 0
-365 552 110 0
-365 -552 19 0
366 552 -221 0
366 -552 -230 0
-366 -552 230 0
-366 552 221 0
-367 368 464 499 507 0
367 -507 0
367 -368 0
367 -464 0
367 -499 0
-368 369 413 441 447 0
368 -447 0
368 -441 0
368 -369 0
368 -413 0
369 -551 330 -370 0
369 551 -370 402 0
-369 370 0
-369 551 -402 0
-369 -551 -330 0
-370 -551 327 0
-370 551 371 0
370 -551 -327 0
370 551 -371 0
-371 552 391 0
-371 -552 372 0
-371 552 -379 0
371 -552 -372 0
371 552 379 -391 0
372 -553 -282 0
372 553 -373 0
-372 553 373 0
-372 -553 282 0
373 -554 -179 0
373 554 -374 0
-373 554 374 0
-373 -554 179 0
374 -555 -377 0
374 555 -375 0
-374 555 375 0
-374 -555 377 0
-375 544 376 0
375 -544 0
375 -376 0
376 -164 182 0
-376 164 0
-376 -182 0
-377 543 378 0
377 -543 0
377 -378 0
378 -169 182 0
-378 169 0
-378 -182 0
379 -553 380 0
-379 553 0
-379 -380 0
380 554 -381 0
380 -554 -386 0
-380 -554 386 0
-380 554 381 0
381 -555 -384 0
381 555 -382 0
-381 555 382 0
-381 -555 384 0
-382 548 383 0
382 -548 0
382 -383 0
383 -125 182 0
-383 125 0
-383 -182 0
-384 547 385 0
384 -547 0
384 -385 0
385 -135 182 0
-385 135 0
-385 -182 0
386 -555 -389 0
386 555 -387 0
-386 555 387 0
-386 -555 389 0
-387 546 388 0
387 -546 0
387 -388 0
388 -147 182 0
-388 147 0
-388 -182 0
-389 545 390 0
389 -545 0
389 -390 0
390 -155 182 0
-390 155 0
-390 -182 0
-391 553 -554 392 0
-391 553 554 397 0
391 -553 0
391 -554 -392 0
391 554 -397 0
392 -555 -395 0
392 555 -393 0
-392 555 393 0
-392 -555 395 0
-393 550 394 0
393 -550 0
393 -394 0
394 -116 182 0
-394 116 0
-394 -182 0
-395 549 396 0
395 -549 0
395 -396 0
396 -120 182 0
-396 120 0
-396 -182 0
397 -555 -400 0
397 555 -398 0
-397 555 398 0
-397 -555 400 0
-398 552 399 0
398 -552 0
398 -399 0
399 182 -208 0
-399 -182 0
-399 208 0
-400 551 401 0
400 -551 0
400 -401 0
401 182 -212 0
-401 -182 0
-401 212 0
402 552 -403 0
402 -552 -410 0
-402 -552 410 0
-402 552 403 0
403 553 -404 0
403 -553 -407 0
-403 -553 407 0
-403 553 404 0
404 -554 -405 0
404 554 -406 0
-404 554 406 0
-404 -554 405 0
405 555 -394 0
405 -555 -396 0
-405 -555 396 0
-405 555 394 0
406 555 -399 0
406 -555 -401 0
-406 -555 401 0
-406 555 399 0
407 554 -408 0
407 -554 -409 0
-407 -554 409 0
-407 554 408 0
408 555 -383 0
408 -555 -385 0
-408 -555 385 0
-408 555 383 0
409 555 -388 0
409 -555 -390 0
-409 -555 390 0
-409 555 388 0
410 -553 -288 0
410 553 -411 0
-410 553 411 0
-410 -553 288 0
411 -554 -216 0
411 554 -412 0
-411 554 412 0
-411 -554 216 0
412 555 -376 0
412 -555 -378 0
-412 -555 378 0
-412 555 376 0
413 -551 349 -414 0
413 551 -414 429 0
-413 414 0
-413 551 -429 0
-413 -551 -349 0
-414 -551 346 0
-414 551 415 0
414 551 -415 0
414 -551 -346 0
-415 552 424 0
-415 -552 416 0
-415 552 -420 0
415 -552 -416 0
415 552 420 -424 0
416 -553 -248 0
416 553 -417 0
-416 553 417 0
-416 -553 248 0
417 554 -418 0
417 -554 -419 0
-417 -554 419 0
-417 554 418 0
418 555 -389 0
418 -555 -375 0
-418 -555 375 0
-418 555 389 0
419 555 -377 0
419 -555 -180 0
-419 -555 180 0
-419 555 377 0
420 -553 421 0
-420 553 0
-420 -421 0
421 554 -422 0
421 -554 -423 0
-421 -554 423 0
-421 554 422 0
422 555 -395 0
422 -555 -382 0
-422 -555 382 0
-422 555 395 0
423 -555 -387 0
423 555 -384 0
-423 555 384 0
-423 -555 387 0
-424 553 -554 425 0
-424 553 554 426 0
424 -553 0
424 -554 -425 0
424 554 -426 0
425 555 -400 0
425 -555 -393 0
-425 -555 393 0
-425 555 400 0
426 555 -427 0
426 -555 -398 0
-426 -555 398 0
-426 555 427 0
-427 553 428 0
427 -553 0
427 -428 0
428 182 -203 0
-428 -182 0
-428 203 0
429 552 -430 0
429 -552 -437 0
-429 -552 437 0
-429 552 430 0
430 553 -431 0
430 -553 -434 0
-430 -553 434 0
-430 553 431 0
431 554 -432 0
431 -554 -433 0
-431 -554 433 0
-431 554 432 0
432 -555 -399 0
432 555 -428 0
-432 555 428 0
-432 -555 399 0
433 -555 -394 0
433 555 -401 0
-433 555 401 0
-433 -555 394 0
434 554 -435 0
434 -554 -436 0
-434 -554 436 0
-434 554 435 0
435 -555 -383 0
435 555 -396 0
-435 555 396 0
-435 -555 383 0
436 555 -385 0
436 -555 -388 0
-436 -555 388 0
-436 555 385 0
437 -553 -257 0
437 553 -438 0
-437 553 438 0
-437 -553 257 0
438 554 -439 0
438 -554 -440 0
-438 -554 440 0
-438 554 439 0
439 -555 -376 0
439 555 -390 0
-439 555 390 0
-439 -555 376 0
440 -555 -181 0
440 555 -378 0
-440 555 378 0
-440 -555 181 0
441 -551 318 -442 0
441 551 -442 445 0
-441 442 0
-441 551 -445 0
-441 -551 -318 0
-442 -551 317 0
-442 551 443 444 0
442 -551 -317 0
442 551 -444 0
442 551 -443 0
443 -552 -247 0
-443 552 0
-443 247 0
444 552 553 -421 0
444 552 -553 -417 0
-444 -552 0
-444 -553 417 0
-444 553 421 0
445 -552 -256 0
445 552 -446 0
-445 552 446 0
-445 -552 256 0
446 553 -434 0
446 -553 -438 0
-446 -553 438 0
-446 553 434 0
447 -551 309 -448 0
447 551 -448 457 0
-447 448 0
-447 551 -457 0
-447 -551 -309 0
-448 -551 302 0
-448 551 449 0
448 551 -449 0
448 -551 -302 0
-449 552 453 0
-449 -552 450 0
449 -552 -450 0
449 552 -453 0
450 553 -451 0
450 -553 -452 0
-450 -553 452 0
-450 553 451 0
451 -554 -418 0
451 554 -423 0
-451 554 423 0
-451 -554 418 0
452 -554 -249 0
452 554 -419 0
-452 554 419 0
-452 -554 249 0
453 -553 -454 0
453 553 -456 0
453 553 -455 0
-453 -553 454 0
-453 553 455 456 0
454 -554 -422 0
454 554 -425 0
-454 554 425 0
-454 -554 422 0
455 -554 -426 0
-455 554 0
-455 426 0
-456 -182 0
-456 193 199 0
-456 555 193 0
456 182 -193 0
456 -555 182 -199 0
457 552 -458 0
457 -552 -461 0
-457 -552 461 0
-457 552 458 0
458 553 -459 0
458 -553 -460 0
-458 -553 460 0
-458 553 459 0
459 -554 -432 0
459 554 -456 0
-459 -554 432 0
-459 554 456 0
460 554 -433 0
460 -554 -435 0
-460 -554 435 0
-460 554 433 0
461 553 -462 0
461 -553 -463 0
-461 -553 463 0
-461 553 462 0
462 554 -436 0
462 -554 -439 0
-462 -554 439 0
-462 554 436 0
463 -554 -258 0
463 554 -440 0
-463 554 440 0
-463 -554 258 0
-464 465 469 487 493 0
464 -493 0
464 -487 0
464 -465 0
464 -469 0
465 -551 335 -466 0
465 551 -466 468 0
-465 466 0
-465 551 -468 0
-465 -551 -335 0
-466 -551 334 0
-466 551 467 0
466 -551 -334 0
466 551 -467 0
-467 552 450 0
-467 -552 306 0
467 -552 -306 0
467 552 -450 0
468 -552 -310 0
468 552 -461 0
-468 552 461 0
-468 -552 310 0
469 -551 343 -470 0
469 551 -470 480 0
-469 470 0
-469 551 -480 0
-469 -551 -343 0
-470 -551 340 0
-470 551 471 0
470 551 -471 0
470 -551 -340 0
-471 552 476 0
-471 -552 472 0
-471 552 -474 0
471 -552 -472 0
471 552 474 -476 0
472 -553 -178 0
472 553 -473 0
-472 553 473 0
-472 -553 178 0
473 -554 -374 0
473 554 -386 0
-473 554 386 0
-473 -554 374 0
474 -553 475 0
-474 553 0
-474 -475 0
475 -554 -381 0
475 554 -392 0
-475 554 392 0
-475 -554 381 0
-476 553 554 477 0
-476 553 -554 397 0
476 -553 0
476 -554 -397 0
476 554 -477 0
-477 427 478 0
-477 555 478 0
477 -478 0
477 -555 -427 0
478 555 -479 0
-478 -555 0
-478 479 0
479 182 -199 0
-479 -182 0
-479 199 0
480 552 -481 0
480 -552 -485 0
-480 -552 485 0
-480 552 481 0
481 553 -482 0
481 -553 -484 0
-481 -553 484 0
-481 553 482 0
482 -554 -406 0
482 554 -483 0
482 554 -478 0
-482 -554 406 0
-482 554 478 483 0
483 -555 -428 0
-483 555 0
-483 428 0
484 554 -405 0
484 -554 -408 0
-484 -554 408 0
-484 554 405 0
485 -553 -215 0
485 553 -486 0
-485 553 486 0
-485 -553 215 0
486 554 -409 0
486 -554 -412 0
-486 -554 412 0
-486 554 409 0
487 -551 337 -488 0
487 551 -488 491 0
-487 488 0
-487 551 -491 0
-487 -551 -337 0
-488 -551 336 0
-488 551 489 490 0
488 -551 -336 0
488 551 -490 0
488 551 -489 0
489 -552 -281 0
-489 552 0
-489 281 0
490 552 553 -380 0
490 552 -553 -373 0
-490 -552 0
-490 -553 373 0
-490 553 380 0
491 -552 -287 0
491 552 -492 0
-491 552 492 0
-491 -552 287 0
492 553 -407 0
492 -553 -411 0
-492 -553 411 0
-492 553 407 0
493 -551 366 -494 0
493 551 -494 497 0
-493 494 0
-493 551 -497 0
-493 -551 -366 0
-494 -551 365 0
-494 551 495 496 0
494 -551 -365 0
494 551 -496 0
494 551 -495 0
495 -552 -177 0
-495 552 0
-495 177 0
496 552 553 -475 0
496 552 -553 -473 0
-496 -552 0
-496 -553 473 0
-496 553 475 0
497 -552 -214 0
497 552 -498 0
-497 552 498 0
-497 -552 214 0
498 553 -484 0
498 -553 -486 0
-498 -553 486 0
-498 553 484 0
499 -551 324 -500 0
499 551 -500 504 0
-499 500 0
-499 551 -504 0
-499 -551 -324 0
-500 -551 321 0
-500 551 501 503 0
500 -551 -321 0
500 551 -503 0
500 551 -501 0
501 -552 -502 0
-501 552 0
-501 502 0
502 -553 -307 0
502 553 -452 0
-502 553 452 0
-502 -553 307 0
503 552 553 -454 0
503 552 -553 -451 0
-503 -552 0
-503 -553 451 0
-503 553 454 0
504 552 -505 0
504 -552 -506 0
-504 -552 506 0
-504 552 505 0
505 553 -460 0
505 -553 -462 0
-505 -553 462 0
-505 553 460 0
506 -553 -311 0
506 553 -463 0
-506 553 463 0
-506 -553 311 0
-507 508 512 516 520 0
507 -520 0
507 -516 0
507 -508 0
507 -512 0
508 -551 360 -509 0
508 551 -509 511 0
-508 509 0
-508 551 -511 0
-508 -551 -360 0
509 -359 -510 0
509 551 -510 0
-509 510 0
-509 -551 359 0
-510 551 -552 328 0
-510 551 552 372 0
510 -551 0
510 -552 -328 0
510 552 -372 0
511 -552 -331 0
511 552 -410 0
-511 552 410 0
-511 -552 331 0
512 -551 355 -513 0
512 551 -513 515 0
-512 513 0
-512 551 -515 0
-512 -551 -355 0
-513 -551 354 0
-513 551 514 0
513 -551 -354 0
513 551 -514 0
-514 552 472 0
-514 -552 342 0
514 -552 -342 0
514 552 -472 0
515 -552 -344 0
515 552 -485 0
-515 552 485 0
-515 -552 344 0
516 -551 363 -517 0
516 551 -517 519 0
-516 517 0
-516 551 -519 0
-516 -551 -363 0
517 -362 -518 0
517 551 -518 0
-517 518 0
-517 -551 362 0
-518 551 -552 322 0
-518 551 552 502 0
518 -551 0
518 -552 -322 0
518 552 -502 0
519 -552 -325 0
519 552 -506 0
-519 552 506 0
-519 -552 325 0
520 -551 357 -521 0
520 551 -521 523 0
-520 521 0
-520 551 -523 0
-520 -551 -357 0
521 -356 -522 0
521 551 -522 0
-521 522 0
-521 -551 356 0
-522 551 -552 348 0
-522 551 552 416 0
522 -551 0
522 -552 -348 0
522 552 -416 0
523 -552 -350 0
523 552 -437 0
-523 552 437 0
-523 -552 350 0
-588 0
2 0

